<instance format="XCSP3" type="COP">
  <variables>
    <var id="x" note="x is the number of unused bins"> 0..24 </var>
    <array id="b" note="b[i][j] indicates the weight of the jth object put in the ith bin. It is 0 if there is no object at this place." size="[24][3]"> 0 250..252 254..256 258 259 263 269 272 275 278 280 282..284 286 292 293 295 312 335 341 343 346 352..354 356 357 361 363 368 370 378 381 383 391 398 439 451 453 454 462 468 485 491 498 </array>
  </variables>
  <constraints>
    <group>
      <mdd>
        <list> %... </list>
        <transitions> (root,0,n3)(root,250,n5)(root,251,n6)(root,252,n8)(root,254,n8)(root,255,n11)(root,256,n12)(root,258,n15)(root,259,n17)(root,263,n19)(root,269,n21)(root,272,n22)(root,275,n24)(root,278,n27)(root,280,n29)(root,282,n30)(root,283,n32)(root,284,n34)(root,286,n36)(root,292,n38)(root,293,n40)(root,295,n43)(root,312,n45)(root,335,n46)(root,341,n48)(root,343,n50)(root,346,n51)(root,352,n52)(root,353,n53)(root,354,n54)(root,356,n55)(root,357,n56)(root,361,n57)(root,363,n58)(root,368,n59)(root,370,n60)(root,378,n61)(root,381,n62)(root,383,n63)(root,391,n64)(root,398,n65)(root,439,n66)(root,451,n67)(root,453,n68)(root,454,n69)(root,462,n70)(root,468,n71)(root,485,n72)(root,491,n73)(root,498,n74)(n3,0,n4)(n4,0,nodeT)(n5,0,n4)(n5,250,n4)(n6,0,n4)(n6,250,n7)(n6,251,n7)(n7,0,nodeT)(n7,250,nodeT)(n8,0,n4)(n8,250,n7)(n8,251,n9)(n8,252,n10)(n9,0,nodeT)(n9,250,nodeT)(n9,251,nodeT)(n10,0,nodeT)(n10,250,nodeT)(n10,251,nodeT)(n10,252,nodeT)(n11,0,n4)(n11,250,n7)(n11,251,n9)(n11,252,n10)(n11,254,n10)(n12,0,n4)(n12,250,n7)(n12,251,n9)(n12,252,n10)(n12,254,n10)(n12,255,n13)(n12,256,n14)(n13,0,nodeT)(n13,250,nodeT)(n13,251,nodeT)(n13,252,nodeT)(n13,254,nodeT)(n14,0,nodeT)(n14,250,nodeT)(n14,251,nodeT)(n14,252,nodeT)(n14,254,nodeT)(n14,255,nodeT)(n15,0,n4)(n15,250,n7)(n15,251,n9)(n15,252,n10)(n15,254,n10)(n15,255,n13)(n15,256,n16)(n16,0,nodeT)(n16,250,nodeT)(n16,251,nodeT)(n16,252,nodeT)(n16,254,nodeT)(n16,255,nodeT)(n16,256,nodeT)(n17,0,n4)(n17,250,n7)(n17,251,n9)(n17,252,n10)(n17,254,n10)(n17,255,n13)(n17,256,n16)(n17,258,n16)(n17,259,n18)(n18,0,nodeT)(n18,250,nodeT)(n18,251,nodeT)(n18,252,nodeT)(n18,254,nodeT)(n18,255,nodeT)(n18,256,nodeT)(n18,258,nodeT)(n19,0,n4)(n19,250,n7)(n19,251,n9)(n19,252,n10)(n19,254,n10)(n19,255,n13)(n19,256,n16)(n19,258,n16)(n19,259,n20)(n20,0,nodeT)(n20,250,nodeT)(n20,251,nodeT)(n20,252,nodeT)(n20,254,nodeT)(n20,255,nodeT)(n20,256,nodeT)(n20,258,nodeT)(n20,259,nodeT)(n21,0,n4)(n21,250,n7)(n21,251,n9)(n21,252,n10)(n21,254,n10)(n21,255,n13)(n21,256,n16)(n21,258,n16)(n21,259,n20)(n21,263,n20)(n22,0,n4)(n22,250,n7)(n22,251,n9)(n22,252,n10)(n22,254,n10)(n22,255,n13)(n22,256,n16)(n22,258,n16)(n22,259,n20)(n22,263,n20)(n22,269,n23)(n23,0,nodeT)(n23,250,nodeT)(n23,251,nodeT)(n23,252,nodeT)(n23,254,nodeT)(n23,255,nodeT)(n23,256,nodeT)(n23,258,nodeT)(n23,259,nodeT)(n23,263,nodeT)(n24,0,n4)(n24,250,n7)(n24,251,n9)(n24,252,n10)(n24,254,n10)(n24,255,n13)(n24,256,n16)(n24,258,n16)(n24,259,n20)(n24,263,n20)(n24,269,n23)(n24,272,n25)(n24,275,n26)(n25,0,nodeT)(n25,250,nodeT)(n25,251,nodeT)(n25,252,nodeT)(n25,254,nodeT)(n25,255,nodeT)(n25,256,nodeT)(n25,258,nodeT)(n25,259,nodeT)(n25,263,nodeT)(n25,269,nodeT)(n26,0,nodeT)(n26,250,nodeT)(n26,251,nodeT)(n26,252,nodeT)(n26,254,nodeT)(n26,255,nodeT)(n26,256,nodeT)(n26,258,nodeT)(n26,259,nodeT)(n26,263,nodeT)(n26,269,nodeT)(n26,272,nodeT)(n27,0,n4)(n27,250,n7)(n27,251,n9)(n27,252,n10)(n27,254,n10)(n27,255,n13)(n27,256,n16)(n27,258,n16)(n27,259,n20)(n27,263,n20)(n27,269,n23)(n27,272,n25)(n27,275,n28)(n28,0,nodeT)(n28,250,nodeT)(n28,251,nodeT)(n28,252,nodeT)(n28,254,nodeT)(n28,255,nodeT)(n28,256,nodeT)(n28,258,nodeT)(n28,259,nodeT)(n28,263,nodeT)(n28,269,nodeT)(n28,272,nodeT)(n28,275,nodeT)(n29,0,n4)(n29,250,n7)(n29,251,n9)(n29,252,n10)(n29,254,n10)(n29,255,n13)(n29,256,n16)(n29,258,n16)(n29,259,n20)(n29,263,n20)(n29,269,n23)(n29,272,n25)(n29,275,n28)(n29,278,n28)(n30,0,n4)(n30,250,n7)(n30,251,n9)(n30,252,n10)(n30,254,n10)(n30,255,n13)(n30,256,n16)(n30,258,n16)(n30,259,n20)(n30,263,n20)(n30,269,n23)(n30,272,n25)(n30,275,n28)(n30,278,n28)(n30,280,n31)(n31,0,nodeT)(n31,250,nodeT)(n31,251,nodeT)(n31,252,nodeT)(n31,254,nodeT)(n31,255,nodeT)(n31,256,nodeT)(n31,258,nodeT)(n31,259,nodeT)(n31,263,nodeT)(n31,269,nodeT)(n31,272,nodeT)(n31,275,nodeT)(n31,278,nodeT)(n32,0,n4)(n32,250,n7)(n32,251,n9)(n32,252,n10)(n32,254,n10)(n32,255,n13)(n32,256,n16)(n32,258,n16)(n32,259,n20)(n32,263,n20)(n32,269,n23)(n32,272,n25)(n32,275,n28)(n32,278,n28)(n32,280,n31)(n32,282,n33)(n33,0,nodeT)(n33,250,nodeT)(n33,251,nodeT)(n33,252,nodeT)(n33,254,nodeT)(n33,255,nodeT)(n33,256,nodeT)(n33,258,nodeT)(n33,259,nodeT)(n33,263,nodeT)(n33,269,nodeT)(n33,272,nodeT)(n33,275,nodeT)(n33,278,nodeT)(n33,280,nodeT)(n34,0,n4)(n34,250,n7)(n34,251,n9)(n34,252,n10)(n34,254,n10)(n34,255,n13)(n34,256,n16)(n34,258,n16)(n34,259,n20)(n34,263,n20)(n34,269,n23)(n34,272,n25)(n34,275,n28)(n34,278,n28)(n34,280,n31)(n34,282,n33)(n34,283,n35)(n35,0,nodeT)(n35,250,nodeT)(n35,251,nodeT)(n35,252,nodeT)(n35,254,nodeT)(n35,255,nodeT)(n35,256,nodeT)(n35,258,nodeT)(n35,259,nodeT)(n35,263,nodeT)(n35,269,nodeT)(n35,272,nodeT)(n35,275,nodeT)(n35,278,nodeT)(n35,280,nodeT)(n35,282,nodeT)(n36,0,n4)(n36,250,n7)(n36,251,n9)(n36,252,n10)(n36,254,n10)(n36,255,n13)(n36,256,n16)(n36,258,n16)(n36,259,n20)(n36,263,n20)(n36,269,n23)(n36,272,n25)(n36,275,n28)(n36,278,n28)(n36,280,n31)(n36,282,n33)(n36,283,n35)(n36,284,n37)(n37,0,nodeT)(n37,250,nodeT)(n37,251,nodeT)(n37,252,nodeT)(n37,254,nodeT)(n37,255,nodeT)(n37,256,nodeT)(n37,258,nodeT)(n37,259,nodeT)(n37,263,nodeT)(n37,269,nodeT)(n37,272,nodeT)(n37,275,nodeT)(n37,278,nodeT)(n37,280,nodeT)(n37,282,nodeT)(n37,283,nodeT)(n38,0,n4)(n38,250,n7)(n38,251,n9)(n38,252,n10)(n38,254,n10)(n38,255,n13)(n38,256,n16)(n38,258,n16)(n38,259,n20)(n38,263,n20)(n38,269,n23)(n38,272,n25)(n38,275,n28)(n38,278,n28)(n38,280,n31)(n38,282,n33)(n38,283,n35)(n38,284,n37)(n38,286,n39)(n39,0,nodeT)(n39,250,nodeT)(n39,251,nodeT)(n39,252,nodeT)(n39,254,nodeT)(n39,255,nodeT)(n39,256,nodeT)(n39,258,nodeT)(n39,259,nodeT)(n39,263,nodeT)(n39,269,nodeT)(n39,272,nodeT)(n39,275,nodeT)(n39,278,nodeT)(n39,280,nodeT)(n39,282,nodeT)(n39,283,nodeT)(n39,284,nodeT)(n40,0,n4)(n40,250,n7)(n40,251,n9)(n40,252,n10)(n40,254,n10)(n40,255,n13)(n40,256,n16)(n40,258,n16)(n40,259,n20)(n40,263,n20)(n40,269,n23)(n40,272,n25)(n40,275,n28)(n40,278,n28)(n40,280,n31)(n40,282,n33)(n40,283,n35)(n40,284,n37)(n40,286,n39)(n40,292,n41)(n40,293,n42)(n41,0,nodeT)(n41,250,nodeT)(n41,251,nodeT)(n41,252,nodeT)(n41,254,nodeT)(n41,255,nodeT)(n41,256,nodeT)(n41,258,nodeT)(n41,259,nodeT)(n41,263,nodeT)(n41,269,nodeT)(n41,272,nodeT)(n41,275,nodeT)(n41,278,nodeT)(n41,280,nodeT)(n41,282,nodeT)(n41,283,nodeT)(n41,284,nodeT)(n41,286,nodeT)(n42,0,nodeT)(n42,250,nodeT)(n42,251,nodeT)(n42,252,nodeT)(n42,254,nodeT)(n42,255,nodeT)(n42,256,nodeT)(n42,258,nodeT)(n42,259,nodeT)(n42,263,nodeT)(n42,269,nodeT)(n42,272,nodeT)(n42,275,nodeT)(n42,278,nodeT)(n42,280,nodeT)(n42,282,nodeT)(n42,283,nodeT)(n42,284,nodeT)(n42,286,nodeT)(n42,292,nodeT)(n43,0,n4)(n43,250,n7)(n43,251,n9)(n43,252,n10)(n43,254,n10)(n43,255,n13)(n43,256,n16)(n43,258,n16)(n43,259,n20)(n43,263,n20)(n43,269,n23)(n43,272,n25)(n43,275,n28)(n43,278,n28)(n43,280,n31)(n43,282,n33)(n43,283,n35)(n43,284,n37)(n43,286,n39)(n43,292,n41)(n43,293,n44)(n44,0,nodeT)(n44,250,nodeT)(n44,251,nodeT)(n44,252,nodeT)(n44,254,nodeT)(n44,255,nodeT)(n44,256,nodeT)(n44,258,nodeT)(n44,259,nodeT)(n44,263,nodeT)(n44,269,nodeT)(n44,272,nodeT)(n44,275,nodeT)(n44,278,nodeT)(n44,280,nodeT)(n44,282,nodeT)(n44,283,nodeT)(n44,284,nodeT)(n44,286,nodeT)(n44,292,nodeT)(n44,293,nodeT)(n45,0,n4)(n45,250,n7)(n45,251,n9)(n45,252,n10)(n45,254,n10)(n45,255,n13)(n45,256,n16)(n45,258,n16)(n45,259,n20)(n45,263,n20)(n45,269,n23)(n45,272,n25)(n45,275,n28)(n45,278,n28)(n45,280,n31)(n45,282,n33)(n45,283,n35)(n45,284,n37)(n45,286,n39)(n45,292,n41)(n45,293,n44)(n45,295,n44)(n46,0,n4)(n46,250,n7)(n46,251,n9)(n46,252,n10)(n46,254,n10)(n46,255,n13)(n46,256,n16)(n46,258,n16)(n46,259,n20)(n46,263,n20)(n46,269,n23)(n46,272,n25)(n46,275,n28)(n46,278,n28)(n46,280,n31)(n46,282,n33)(n46,283,n35)(n46,284,n37)(n46,286,n39)(n46,292,n41)(n46,293,n44)(n46,295,n44)(n46,312,n47)(n47,0,nodeT)(n47,250,nodeT)(n47,251,nodeT)(n47,252,nodeT)(n47,254,nodeT)(n47,255,nodeT)(n47,256,nodeT)(n47,258,nodeT)(n47,259,nodeT)(n47,263,nodeT)(n47,269,nodeT)(n47,272,nodeT)(n47,275,nodeT)(n47,278,nodeT)(n47,280,nodeT)(n47,282,nodeT)(n47,283,nodeT)(n47,284,nodeT)(n47,286,nodeT)(n47,292,nodeT)(n47,293,nodeT)(n47,295,nodeT)(n48,0,n4)(n48,250,n7)(n48,251,n9)(n48,252,n10)(n48,254,n10)(n48,255,n13)(n48,256,n16)(n48,258,n16)(n48,259,n20)(n48,263,n20)(n48,269,n23)(n48,272,n25)(n48,275,n28)(n48,278,n28)(n48,280,n31)(n48,282,n33)(n48,283,n35)(n48,284,n37)(n48,286,n39)(n48,292,n41)(n48,293,n44)(n48,295,n44)(n48,312,n47)(n48,335,n49)(n49,0,nodeT)(n49,250,nodeT)(n49,251,nodeT)(n49,252,nodeT)(n49,254,nodeT)(n49,255,nodeT)(n49,256,nodeT)(n49,258,nodeT)(n49,259,nodeT)(n49,263,nodeT)(n49,269,nodeT)(n49,272,nodeT)(n49,275,nodeT)(n49,278,nodeT)(n49,280,nodeT)(n49,282,nodeT)(n49,283,nodeT)(n49,284,nodeT)(n49,286,nodeT)(n49,292,nodeT)(n49,293,nodeT)(n49,295,nodeT)(n49,312,nodeT)(n50,0,n4)(n50,250,n7)(n50,251,n9)(n50,252,n10)(n50,254,n10)(n50,255,n13)(n50,256,n16)(n50,258,n16)(n50,259,n20)(n50,263,n20)(n50,269,n23)(n50,272,n25)(n50,275,n28)(n50,278,n28)(n50,280,n31)(n50,282,n33)(n50,283,n35)(n50,284,n37)(n50,286,n39)(n50,292,n41)(n50,293,n44)(n50,295,n44)(n50,312,n47)(n50,335,n49)(n50,341,n49)(n51,0,n4)(n51,250,n7)(n51,251,n9)(n51,252,n10)(n51,254,n10)(n51,255,n13)(n51,256,n16)(n51,258,n16)(n51,259,n20)(n51,263,n20)(n51,269,n23)(n51,272,n25)(n51,275,n28)(n51,278,n28)(n51,280,n31)(n51,282,n33)(n51,283,n35)(n51,284,n37)(n51,286,n39)(n51,292,n41)(n51,293,n44)(n51,295,n44)(n51,312,n47)(n51,335,n49)(n51,341,n49)(n51,343,n47)(n52,0,n4)(n52,250,n7)(n52,251,n9)(n52,252,n10)(n52,254,n10)(n52,255,n13)(n52,256,n16)(n52,258,n16)(n52,259,n20)(n52,263,n20)(n52,269,n23)(n52,272,n25)(n52,275,n28)(n52,278,n28)(n52,280,n31)(n52,282,n33)(n52,283,n35)(n52,284,n37)(n52,286,n39)(n52,292,n41)(n52,293,n44)(n52,295,n44)(n52,312,n47)(n52,335,n49)(n52,341,n47)(n52,343,n47)(n52,346,n47)(n53,0,n4)(n53,250,n7)(n53,251,n9)(n53,252,n10)(n53,254,n10)(n53,255,n13)(n53,256,n16)(n53,258,n16)(n53,259,n20)(n53,263,n20)(n53,269,n23)(n53,272,n25)(n53,275,n28)(n53,278,n28)(n53,280,n31)(n53,282,n33)(n53,283,n35)(n53,284,n37)(n53,286,n39)(n53,292,n41)(n53,293,n44)(n53,295,n44)(n53,312,n47)(n53,335,n49)(n53,341,n47)(n53,343,n47)(n53,346,n47)(n53,352,n47)(n54,0,n4)(n54,250,n7)(n54,251,n9)(n54,252,n10)(n54,254,n10)(n54,255,n13)(n54,256,n16)(n54,258,n16)(n54,259,n20)(n54,263,n20)(n54,269,n23)(n54,272,n25)(n54,275,n28)(n54,278,n28)(n54,280,n31)(n54,282,n33)(n54,283,n35)(n54,284,n37)(n54,286,n39)(n54,292,n41)(n54,293,n44)(n54,295,n44)(n54,312,n47)(n54,335,n47)(n54,341,n47)(n54,343,n47)(n54,346,n47)(n54,352,n44)(n54,353,n44)(n55,0,n4)(n55,250,n7)(n55,251,n9)(n55,252,n10)(n55,254,n10)(n55,255,n13)(n55,256,n16)(n55,258,n16)(n55,259,n20)(n55,263,n20)(n55,269,n23)(n55,272,n25)(n55,275,n28)(n55,278,n28)(n55,280,n31)(n55,282,n33)(n55,283,n35)(n55,284,n37)(n55,286,n39)(n55,292,n41)(n55,293,n44)(n55,295,n44)(n55,312,n47)(n55,335,n47)(n55,341,n47)(n55,343,n47)(n55,346,n47)(n55,352,n42)(n55,353,n41)(n55,354,n41)(n56,0,n4)(n56,250,n7)(n56,251,n9)(n56,252,n10)(n56,254,n10)(n56,255,n13)(n56,256,n16)(n56,258,n16)(n56,259,n20)(n56,263,n20)(n56,269,n23)(n56,272,n25)(n56,275,n28)(n56,278,n28)(n56,280,n31)(n56,282,n33)(n56,283,n35)(n56,284,n37)(n56,286,n39)(n56,292,n41)(n56,293,n44)(n56,295,n44)(n56,312,n47)(n56,335,n47)(n56,341,n47)(n56,343,n47)(n56,346,n47)(n56,352,n41)(n56,353,n41)(n56,354,n41)(n56,356,n41)(n57,0,n4)(n57,250,n7)(n57,251,n9)(n57,252,n10)(n57,254,n10)(n57,255,n13)(n57,256,n16)(n57,258,n16)(n57,259,n20)(n57,263,n20)(n57,269,n23)(n57,272,n25)(n57,275,n28)(n57,278,n28)(n57,280,n31)(n57,282,n33)(n57,283,n35)(n57,284,n37)(n57,286,n39)(n57,292,n41)(n57,293,n44)(n57,295,n44)(n57,312,n47)(n57,335,n47)(n57,341,n47)(n57,343,n47)(n57,346,n44)(n57,352,n41)(n57,353,n41)(n57,354,n39)(n57,356,n37)(n57,357,n35)(n57,361,n31)(n58,0,n4)(n58,250,n7)(n58,251,n9)(n58,252,n10)(n58,254,n10)(n58,255,n13)(n58,256,n16)(n58,258,n16)(n58,259,n20)(n58,263,n20)(n58,269,n23)(n58,272,n25)(n58,275,n28)(n58,278,n28)(n58,280,n31)(n58,282,n33)(n58,283,n35)(n58,284,n37)(n58,286,n39)(n58,292,n41)(n58,293,n44)(n58,295,n44)(n58,312,n47)(n58,335,n47)(n58,341,n47)(n58,343,n44)(n58,346,n41)(n58,352,n39)(n58,353,n39)(n58,354,n37)(n58,356,n33)(n58,357,n33)(n58,361,n28)(n59,0,n4)(n59,250,n7)(n59,251,n9)(n59,252,n10)(n59,254,n10)(n59,255,n13)(n59,256,n16)(n59,258,n16)(n59,259,n20)(n59,263,n20)(n59,269,n23)(n59,272,n25)(n59,275,n28)(n59,278,n28)(n59,280,n31)(n59,282,n33)(n59,283,n35)(n59,284,n37)(n59,286,n39)(n59,292,n41)(n59,293,n44)(n59,295,n44)(n59,312,n47)(n59,335,n47)(n59,341,n41)(n59,343,n41)(n59,346,n41)(n59,352,n33)(n59,353,n31)(n59,354,n31)(n59,356,n28)(n59,357,n28)(n59,361,n25)(n59,363,n25)(n59,368,n23)(n60,0,n4)(n60,250,n7)(n60,251,n9)(n60,252,n10)(n60,254,n10)(n60,255,n13)(n60,256,n16)(n60,258,n16)(n60,259,n20)(n60,263,n20)(n60,269,n23)(n60,272,n25)(n60,275,n28)(n60,278,n28)(n60,280,n31)(n60,282,n33)(n60,283,n35)(n60,284,n37)(n60,286,n39)(n60,292,n41)(n60,293,n44)(n60,295,n44)(n60,312,n47)(n60,335,n47)(n60,341,n41)(n60,343,n41)(n60,346,n39)(n60,352,n31)(n60,353,n28)(n60,354,n28)(n60,356,n26)(n60,357,n26)(n60,361,n25)(n60,363,n23)(n60,368,n20)(n61,0,n4)(n61,250,n7)(n61,251,n9)(n61,252,n10)(n61,254,n10)(n61,255,n13)(n61,256,n16)(n61,258,n16)(n61,259,n20)(n61,263,n20)(n61,269,n23)(n61,272,n25)(n61,275,n28)(n61,278,n28)(n61,280,n31)(n61,282,n33)(n61,283,n35)(n61,284,n37)(n61,286,n39)(n61,292,n41)(n61,293,n44)(n61,295,n44)(n61,312,n47)(n61,335,n41)(n61,341,n33)(n61,343,n31)(n61,346,n28)(n61,352,n25)(n61,353,n25)(n61,354,n23)(n61,356,n23)(n61,357,n23)(n61,361,n20)(n61,363,n20)(n61,368,n13)(n61,370,n10)(n62,0,n4)(n62,250,n7)(n62,251,n9)(n62,252,n10)(n62,254,n10)(n62,255,n13)(n62,256,n16)(n62,258,n16)(n62,259,n20)(n62,263,n20)(n62,269,n23)(n62,272,n25)(n62,275,n28)(n62,278,n28)(n62,280,n31)(n62,282,n33)(n62,283,n35)(n62,284,n37)(n62,286,n39)(n62,292,n41)(n62,293,n44)(n62,295,n44)(n62,312,n47)(n62,335,n39)(n62,341,n31)(n62,343,n28)(n62,346,n26)(n62,352,n23)(n62,353,n23)(n62,354,n23)(n62,356,n23)(n62,357,n20)(n62,361,n18)(n62,363,n16)(n62,368,n9)(n62,370,n4)(n62,378,n4)(n63,0,n4)(n63,250,n7)(n63,251,n9)(n63,252,n10)(n63,254,n10)(n63,255,n13)(n63,256,n16)(n63,258,n16)(n63,259,n20)(n63,263,n20)(n63,269,n23)(n63,272,n25)(n63,275,n28)(n63,278,n28)(n63,280,n31)(n63,282,n33)(n63,283,n35)(n63,284,n37)(n63,286,n39)(n63,292,n41)(n63,293,n44)(n63,295,n44)(n63,312,n47)(n63,335,n35)(n63,341,n28)(n63,343,n26)(n63,346,n25)(n63,352,n23)(n63,353,n23)(n63,354,n23)(n63,356,n20)(n63,357,n20)(n63,361,n16)(n63,363,n13)(n63,368,n4)(n63,370,n4)(n63,378,n4)(n63,381,n4)(n64,0,n4)(n64,250,n7)(n64,251,n9)(n64,252,n10)(n64,254,n10)(n64,255,n13)(n64,256,n16)(n64,258,n16)(n64,259,n20)(n64,263,n20)(n64,269,n23)(n64,272,n25)(n64,275,n28)(n64,278,n28)(n64,280,n31)(n64,282,n33)(n64,283,n35)(n64,284,n37)(n64,286,n39)(n64,292,n41)(n64,293,n44)(n64,295,n44)(n64,312,n47)(n64,335,n26)(n64,341,n23)(n64,343,n23)(n64,346,n23)(n64,352,n16)(n64,353,n16)(n64,354,n14)(n64,356,n10)(n64,357,n10)(n64,361,n4)(n64,363,n4)(n64,368,n4)(n64,370,n4)(n64,378,n4)(n64,381,n4)(n64,383,n4)(n65,0,n4)(n65,250,n7)(n65,251,n9)(n65,252,n10)(n65,254,n10)(n65,255,n13)(n65,256,n16)(n65,258,n16)(n65,259,n20)(n65,263,n20)(n65,269,n23)(n65,272,n25)(n65,275,n28)(n65,278,n28)(n65,280,n31)(n65,282,n33)(n65,283,n35)(n65,284,n37)(n65,286,n39)(n65,292,n41)(n65,293,n44)(n65,295,n44)(n65,312,n41)(n65,335,n23)(n65,341,n20)(n65,343,n20)(n65,346,n16)(n65,352,n7)(n65,353,n4)(n65,354,n4)(n65,356,n4)(n65,357,n4)(n65,361,n4)(n65,363,n4)(n65,368,n4)(n65,370,n4)(n65,378,n4)(n65,381,n4)(n65,383,n4)(n65,391,n4)(n66,0,n4)(n66,250,n7)(n66,251,n9)(n66,252,n10)(n66,254,n10)(n66,255,n13)(n66,256,n16)(n66,258,n16)(n66,259,n20)(n66,263,n20)(n66,269,n23)(n66,272,n25)(n66,275,n28)(n66,278,n28)(n66,280,n31)(n66,282,n31)(n66,283,n31)(n66,284,n28)(n66,286,n28)(n66,292,n25)(n66,293,n23)(n66,295,n23)(n66,312,n4)(n66,335,n4)(n66,341,n4)(n66,343,n4)(n66,346,n4)(n66,352,n4)(n66,353,n4)(n66,354,n4)(n66,356,n4)(n66,357,n4)(n66,361,n4)(n66,363,n4)(n66,368,n4)(n66,370,n4)(n66,378,n4)(n66,381,n4)(n66,383,n4)(n66,391,n4)(n66,398,n4)(n67,0,n4)(n67,250,n7)(n67,251,n9)(n67,252,n10)(n67,254,n10)(n67,255,n13)(n67,256,n16)(n67,258,n16)(n67,259,n20)(n67,263,n20)(n67,269,n23)(n67,272,n25)(n67,275,n26)(n67,278,n25)(n67,280,n25)(n67,282,n23)(n67,283,n23)(n67,284,n23)(n67,286,n23)(n67,292,n16)(n67,293,n16)(n67,295,n13)(n67,312,n4)(n67,335,n4)(n67,341,n4)(n67,343,n4)(n67,346,n4)(n67,352,n4)(n67,353,n4)(n67,354,n4)(n67,356,n4)(n67,357,n4)(n67,361,n4)(n67,363,n4)(n67,368,n4)(n67,370,n4)(n67,378,n4)(n67,381,n4)(n67,383,n4)(n67,391,n4)(n67,398,n4)(n67,439,n4)(n68,0,n4)(n68,250,n7)(n68,251,n9)(n68,252,n10)(n68,254,n10)(n68,255,n13)(n68,256,n16)(n68,258,n16)(n68,259,n20)(n68,263,n20)(n68,269,n23)(n68,272,n25)(n68,275,n26)(n68,278,n25)(n68,280,n23)(n68,282,n23)(n68,283,n23)(n68,284,n23)(n68,286,n20)(n68,292,n14)(n68,293,n13)(n68,295,n10)(n68,312,n4)(n68,335,n4)(n68,341,n4)(n68,343,n4)(n68,346,n4)(n68,352,n4)(n68,353,n4)(n68,354,n4)(n68,356,n4)(n68,357,n4)(n68,361,n4)(n68,363,n4)(n68,368,n4)(n68,370,n4)(n68,378,n4)(n68,381,n4)(n68,383,n4)(n68,391,n4)(n68,398,n4)(n68,439,n4)(n68,451,n4)(n68,453,n4)(n69,0,n4)(n69,250,n7)(n69,251,n9)(n69,252,n10)(n69,254,n10)(n69,255,n13)(n69,256,n16)(n69,258,n16)(n69,259,n20)(n69,263,n20)(n69,269,n23)(n69,272,n25)(n69,275,n25)(n69,278,n23)(n69,280,n23)(n69,282,n23)(n69,283,n23)(n69,284,n20)(n69,286,n20)(n69,292,n13)(n69,293,n10)(n69,295,n9)(n69,312,n4)(n69,335,n4)(n69,341,n4)(n69,343,n4)(n69,346,n4)(n69,352,n4)(n69,353,n4)(n69,354,n4)(n69,356,n4)(n69,357,n4)(n69,361,n4)(n69,363,n4)(n69,368,n4)(n69,370,n4)(n69,378,n4)(n69,381,n4)(n69,383,n4)(n69,391,n4)(n69,398,n4)(n69,439,n4)(n69,451,n4)(n69,453,n4)(n70,0,n4)(n70,250,n7)(n70,251,n9)(n70,252,n10)(n70,254,n10)(n70,255,n13)(n70,256,n16)(n70,258,n16)(n70,259,n20)(n70,263,n20)(n70,269,n23)(n70,272,n23)(n70,275,n23)(n70,278,n20)(n70,280,n18)(n70,282,n16)(n70,283,n14)(n70,284,n13)(n70,286,n10)(n70,292,n4)(n70,293,n4)(n70,295,n4)(n70,312,n4)(n70,335,n4)(n70,341,n4)(n70,343,n4)(n70,346,n4)(n70,352,n4)(n70,353,n4)(n70,354,n4)(n70,356,n4)(n70,357,n4)(n70,361,n4)(n70,363,n4)(n70,368,n4)(n70,370,n4)(n70,378,n4)(n70,381,n4)(n70,383,n4)(n70,391,n4)(n70,398,n4)(n70,439,n4)(n70,451,n4)(n70,453,n4)(n70,454,n4)(n71,0,n4)(n71,250,n7)(n71,251,n9)(n71,252,n10)(n71,254,n10)(n71,255,n13)(n71,256,n16)(n71,258,n16)(n71,259,n20)(n71,263,n20)(n71,269,n23)(n71,272,n20)(n71,275,n16)(n71,278,n13)(n71,280,n10)(n71,282,n7)(n71,283,n4)(n71,284,n4)(n71,286,n4)(n71,292,n4)(n71,293,n4)(n71,295,n4)(n71,312,n4)(n71,335,n4)(n71,341,n4)(n71,343,n4)(n71,346,n4)(n71,352,n4)(n71,353,n4)(n71,354,n4)(n71,356,n4)(n71,357,n4)(n71,361,n4)(n71,363,n4)(n71,368,n4)(n71,370,n4)(n71,378,n4)(n71,381,n4)(n71,383,n4)(n71,391,n4)(n71,398,n4)(n71,439,n4)(n71,451,n4)(n71,453,n4)(n71,454,n4)(n71,462,n4)(n72,0,n4)(n72,250,n7)(n72,251,n9)(n72,252,n10)(n72,254,n10)(n72,255,n13)(n72,256,n16)(n72,258,n16)(n72,259,n16)(n72,263,n10)(n72,269,n4)(n72,272,n4)(n72,275,n4)(n72,278,n4)(n72,280,n4)(n72,282,n4)(n72,283,n4)(n72,284,n4)(n72,286,n4)(n72,292,n4)(n72,293,n4)(n72,295,n4)(n72,312,n4)(n72,335,n4)(n72,341,n4)(n72,343,n4)(n72,346,n4)(n72,352,n4)(n72,353,n4)(n72,354,n4)(n72,356,n4)(n72,357,n4)(n72,361,n4)(n72,363,n4)(n72,368,n4)(n72,370,n4)(n72,378,n4)(n72,381,n4)(n72,383,n4)(n72,391,n4)(n72,398,n4)(n72,439,n4)(n72,451,n4)(n72,453,n4)(n72,454,n4)(n72,462,n4)(n72,468,n4)(n73,0,n4)(n73,250,n7)(n73,251,n9)(n73,252,n10)(n73,254,n10)(n73,255,n13)(n73,256,n10)(n73,258,n9)(n73,259,n7)(n73,263,n4)(n73,269,n4)(n73,272,n4)(n73,275,n4)(n73,278,n4)(n73,280,n4)(n73,282,n4)(n73,283,n4)(n73,284,n4)(n73,286,n4)(n73,292,n4)(n73,293,n4)(n73,295,n4)(n73,312,n4)(n73,335,n4)(n73,341,n4)(n73,343,n4)(n73,346,n4)(n73,352,n4)(n73,353,n4)(n73,354,n4)(n73,356,n4)(n73,357,n4)(n73,361,n4)(n73,363,n4)(n73,368,n4)(n73,370,n4)(n73,378,n4)(n73,381,n4)(n73,383,n4)(n73,391,n4)(n73,398,n4)(n73,439,n4)(n73,451,n4)(n73,453,n4)(n73,454,n4)(n73,462,n4)(n73,468,n4)(n73,485,n4)(n74,0,n4)(n74,250,n7)(n74,251,n9)(n74,252,n7)(n74,254,n4)(n74,255,n4)(n74,256,n4)(n74,258,n4)(n74,259,n4)(n74,263,n4)(n74,269,n4)(n74,272,n4)(n74,275,n4)(n74,278,n4)(n74,280,n4)(n74,282,n4)(n74,283,n4)(n74,284,n4)(n74,286,n4)(n74,292,n4)(n74,293,n4)(n74,295,n4)(n74,312,n4)(n74,335,n4)(n74,341,n4)(n74,343,n4)(n74,346,n4)(n74,352,n4)(n74,353,n4)(n74,354,n4)(n74,356,n4)(n74,357,n4)(n74,361,n4)(n74,363,n4)(n74,368,n4)(n74,370,n4)(n74,378,n4)(n74,381,n4)(n74,383,n4)(n74,391,n4)(n74,398,n4)(n74,439,n4)(n74,451,n4)(n74,453,n4)(n74,454,n4)(n74,462,n4)(n74,468,n4)(n74,485,n4)(n74,491,n4) </transitions>
      </mdd>
      <args> b[0][] </args>
      <args> b[1][] </args>
      <args> b[2][] </args>
      <args> b[3][] </args>
      <args> b[4][] </args>
      <args> b[5][] </args>
      <args> b[6][] </args>
      <args> b[7][] </args>
      <args> b[8][] </args>
      <args> b[9][] </args>
      <args> b[10][] </args>
      <args> b[11][] </args>
      <args> b[12][] </args>
      <args> b[13][] </args>
      <args> b[14][] </args>
      <args> b[15][] </args>
      <args> b[16][] </args>
      <args> b[17][] </args>
      <args> b[18][] </args>
      <args> b[19][] </args>
      <args> b[20][] </args>
      <args> b[21][] </args>
      <args> b[22][] </args>
      <args> b[23][] </args>
    </group>
    <cardinality>
      <list> b[][] </list>
      <values> 0 250 251 252 254 255 256 258 259 263 269 272 275 278 280 282 283 284 286 292 293 295 312 335 341 343 346 352 353 354 356 357 361 363 368 370 378 381 383 391 398 439 451 453 454 462 468 485 491 498 </values>
      <occurs> 12 2 2 3 1 1 2 1 2 1 1 1 2 1 1 1 1 1 1 1 2 1 1 1 1 1 1 1 1 1 1 1 2 1 2 1 1 1 1 1 1 1 1 2 1 1 1 1 1 1 </occurs>
    </cardinality>
    <lex class="symmetryBreaking">
      <list> b[0][] </list>
      <list> b[1][] </list>
      <list> b[2][] </list>
      <list> b[3][] </list>
      <list> b[4][] </list>
      <list> b[5][] </list>
      <list> b[6][] </list>
      <list> b[7][] </list>
      <list> b[8][] </list>
      <list> b[9][] </list>
      <list> b[10][] </list>
      <list> b[11][] </list>
      <list> b[12][] </list>
      <list> b[13][] </list>
      <list> b[14][] </list>
      <list> b[15][] </list>
      <list> b[16][] </list>
      <list> b[17][] </list>
      <list> b[18][] </list>
      <list> b[19][] </list>
      <list> b[20][] </list>
      <list> b[21][] </list>
      <list> b[22][] </list>
      <list> b[23][] </list>
      <operator> ge </operator>
    </lex>
    <count>
      <list> b[][0] </list>
      <values> 0 </values>
      <condition> (eq,x) </condition>
    </count>
  </constraints>
  <objectives>
    <maximize> x </maximize>
  </objectives>
</instance>
